experiment/data/lkh-res/Vrp-Set-P-n51/Vrp-Set-P-n51-lkh/0.lkh1.log
PARAMETER_FILE = baseline_results/cvrp_lkh/Vrp-Set-P-n51/Vrp-Set-P-n51-lkh/0.lkh1.par
Reading PROBLEM_FILE: "baseline_results/cvrp_lkh/Vrp-Set-P-n51/Vrp-Set-P-n51-lkh/0.lkh1.vrp" ... done
ASCENT_CANDIDATES = 50
BACKBONE_TRIALS = 0
BACKTRACKING = NO
# BWTSP =
# CANDIDATE_FILE =
CANDIDATE_SET_TYPE = ALPHA
# DISTANCE =
DEPOT = 1
# EDGE_FILE =
EXCESS = 0.0196078
EXTERNAL_SALESMEN = 0
EXTRA_CANDIDATES = 0 
EXTRA_CANDIDATE_SET_TYPE = QUADRANT
GAIN23 = NO
GAIN_CRITERION = YES
INITIAL_PERIOD = 100
INITIAL_STEP_SIZE = 1
INITIAL_TOUR_ALGORITHM = WALK
# INITIAL_TOUR_FILE = 
INITIAL_TOUR_FRACTION = 1.000
# INPUT_TOUR_FILE = 
KICK_TYPE = 4
KICKS = 1
# MAX_BREADTH =
MAKESPAN = NO
MAX_CANDIDATES = 5 
MAX_SWAPS = 0
MAX_TRIALS = 10000
# MERGE_TOUR_FILE =
MOVE_TYPE = 5 SPECIAL
MTSP_MIN_SIZE = 1
MTSP_MAX_SIZE = 50
# MTSP_SOLUTION_FILE = 
# NONSEQUENTIAL_MOVE_TYPE = 5
# OPTIMUM =
OUTPUT_TOUR_FILE = baseline_results/cvrp_lkh/Vrp-Set-P-n51/Vrp-Set-P-n51-lkh/0.lkh1.tour
PATCHING_A = 1 
PATCHING_C = 0 
# PI_FILE = 
POPMUSIC_INITIAL_TOUR = NO
POPMUSIC_MAX_NEIGHBORS = 5
POPMUSIC_SAMPLE_SIZE = 10
POPMUSIC_SOLUTIONS = 50
POPMUSIC_TRIALS = 1
POPULATION_SIZE = 10
PRECISION = 100
PROBLEM_FILE = baseline_results/cvrp_lkh/Vrp-Set-P-n51/Vrp-Set-P-n51-lkh/0.lkh1.vrp
RECOMBINATION = IPT
RESTRICTED_SEARCH = YES
RUNS = 1
SALESMEN = 10
SCALE = 1
SEED = 1234
# SINTEF_SOLUTION_FILE = 
STOP_AT_OPTIMUM = YES
SUBGRADIENT = YES
# SUBPROBLEM_SIZE =
# SUBPROBLEM_TOUR_FILE = 
SUBSEQUENT_MOVE_TYPE = 5 SPECIAL
SUBSEQUENT_PATCHING = YES
# TIME_LIMIT =
# TOTAL_TIME_LIMIT =
# TOUR_FILE = 
TRACE_LEVEL = 1
VEHICLES = 10

Lower bound = 55763.6, Ascent time = 0.01 sec.
Cand.min = 5, Cand.avg = 5.0, Cand.max = 5
Preprocessing time = 0.01 sec.
* 1: Cost = 0_83085, Time = 0.02 sec. 
Writing OUTPUT_TOUR_FILE: "baseline_results/cvrp_lkh/Vrp-Set-P-n51/Vrp-Set-P-n51-lkh/0.lkh1.tour" ... done
* 2: Cost = 0_82653, Time = 0.02 sec. 
Writing OUTPUT_TOUR_FILE: "baseline_results/cvrp_lkh/Vrp-Set-P-n51/Vrp-Set-P-n51-lkh/0.lkh1.tour" ... done
* 3: Cost = 0_81507, Time = 0.03 sec. 
Writing OUTPUT_TOUR_FILE: "baseline_results/cvrp_lkh/Vrp-Set-P-n51/Vrp-Set-P-n51-lkh/0.lkh1.tour" ... done
* 6: Cost = 0_81022, Time = 0.05 sec. 
Writing OUTPUT_TOUR_FILE: "baseline_results/cvrp_lkh/Vrp-Set-P-n51/Vrp-Set-P-n51-lkh/0.lkh1.tour" ... done
* 13: Cost = 0_80534, Time = 0.10 sec. 
Writing OUTPUT_TOUR_FILE: "baseline_results/cvrp_lkh/Vrp-Set-P-n51/Vrp-Set-P-n51-lkh/0.lkh1.tour" ... done
* 14: Cost = 0_79081, Time = 0.11 sec. 
Writing OUTPUT_TOUR_FILE: "baseline_results/cvrp_lkh/Vrp-Set-P-n51/Vrp-Set-P-n51-lkh/0.lkh1.tour" ... done
* 17: Cost = 0_78921, Time = 0.13 sec. 
Writing OUTPUT_TOUR_FILE: "baseline_results/cvrp_lkh/Vrp-Set-P-n51/Vrp-Set-P-n51-lkh/0.lkh1.tour" ... done
* 19: Cost = 0_78883, Time = 0.14 sec. 
Writing OUTPUT_TOUR_FILE: "baseline_results/cvrp_lkh/Vrp-Set-P-n51/Vrp-Set-P-n51-lkh/0.lkh1.tour" ... done
* 20: Cost = 0_78316, Time = 0.15 sec. 
Writing OUTPUT_TOUR_FILE: "baseline_results/cvrp_lkh/Vrp-Set-P-n51/Vrp-Set-P-n51-lkh/0.lkh1.tour" ... done
* 22: Cost = 0_77561, Time = 0.17 sec. 
Writing OUTPUT_TOUR_FILE: "baseline_results/cvrp_lkh/Vrp-Set-P-n51/Vrp-Set-P-n51-lkh/0.lkh1.tour" ... done
* 25: Cost = 0_76592, Time = 0.18 sec. 
Writing OUTPUT_TOUR_FILE: "baseline_results/cvrp_lkh/Vrp-Set-P-n51/Vrp-Set-P-n51-lkh/0.lkh1.tour" ... done
* 28: Cost = 0_76512, Time = 0.18 sec. 
Writing OUTPUT_TOUR_FILE: "baseline_results/cvrp_lkh/Vrp-Set-P-n51/Vrp-Set-P-n51-lkh/0.lkh1.tour" ... done
* 40: Cost = 0_74513, Time = 0.26 sec. 
Writing OUTPUT_TOUR_FILE: "baseline_results/cvrp_lkh/Vrp-Set-P-n51/Vrp-Set-P-n51-lkh/0.lkh1.tour" ... done
* 47: Cost = 0_74367, Time = 0.30 sec. 
Writing OUTPUT_TOUR_FILE: "baseline_results/cvrp_lkh/Vrp-Set-P-n51/Vrp-Set-P-n51-lkh/0.lkh1.tour" ... done
* 75: Cost = 0_74323, Time = 0.42 sec. 
Writing OUTPUT_TOUR_FILE: "baseline_results/cvrp_lkh/Vrp-Set-P-n51/Vrp-Set-P-n51-lkh/0.lkh1.tour" ... done
* 107: Cost = 0_74146, Time = 0.55 sec. 
Writing OUTPUT_TOUR_FILE: "baseline_results/cvrp_lkh/Vrp-Set-P-n51/Vrp-Set-P-n51-lkh/0.lkh1.tour" ... done
Population:
  1: 0_74146
Run 1: Cost = 0_74146, Time = 36.89 sec. 

Successes/Runs = 0/1 
Cost.min = 74146, Cost.avg = 74146.00, Cost.max = 74146
Gap.min = 0.0000%, Gap.avg = 0.0000%, Gap.max = 0.0000%
Penalty.min = 0, Penalty.avg = 0.00, Penalty.max = 0
Trials.min = 10000, Trials.avg = 10000.0, Trials.max = 10000
Time.min = 36.89 sec., Time.avg = 36.89 sec., Time.max = 36.89 sec.
Time.total = 36.90 sec.
  Size.min = 3, Size.max = 6, Penalty = 0
  Cost.min = 3962, Cost.max = 10115, Cost.sum = 74146
Best CVRP solution:
  Cost = 0_74146

