experiment/data/lkh-res/Vrp-Set-P-n51/Vrp-Set-P-n51-lkh/0.lkh1.tour
NAME : 0.74146.tour
COMMENT : Length = 74146
COMMENT : Found by LKH-3 [Keld Helsgaun] Tue Apr  9 02:38:34 2024
TYPE : TOUR
DIMENSION : 60
TOUR_SECTION
1
28
7
15
26
55
25
44
8
24
49
56
12
3
17
39
59
30
21
36
37
4
2
58
6
38
45
18
13
53
48
5
19
60
43
20
41
42
14
57
9
27
32
29
23
33
54
16
46
34
40
11
50
52
51
22
35
31
10
47
-1
EOF
